% File represents an instance of a Composite Structure problem to be solved by a CP framework
% Created on 2025-03-26 10:41:26.728
T = 58;
n = 16;
m = 24;
edges = [(1, 2),
(5, 6),
(9, 10),
(14, 13),
(2, 3),
(6, 7),
(11, 10),
(15, 14),
(4, 3),
(8, 7),
(12, 11),
(15, 16),
(5, 1),
(5, 9),
(9, 13),
(6, 2),
(6, 10),
(14, 10),
(7, 3),
(11, 7),
(15, 11),
(8, 4),
(12, 8),
(16, 12)];
counts = [|2, 22, 2, 24,
|2, 20, 2, 22,
|2, 16, 2, 20,
|2, 20, 2, 22,
|2, 24, 2, 24,
|2, 22, 2, 22,
|2, 20, 2, 22,
|2, 24, 2, 22,
|2, 22, 2, 24,
|2, 22, 2, 20,
|2, 24, 2, 24,
|2, 24, 2, 26,
|2, 22, 2, 22,
|2, 22, 2, 26,
|2, 26, 2, 28,
|2, 24, 2, 28|];
